Traveling Salesman Problem/TSP_generados/Aleatorio1621103349_11.tsp
NAME: Aleatorio1621103349_11.tsp
COMMENT: Randomly generated scenario
TYPE: TSP
DIMENSION: 11
EDGE_WEIGHT_TYPE: ATT
NODE_COORD_SECTION
1 2.65 45.97
2 26.87 34.15
3 15.0 6.58
4 10.83 7.81
5 16.85 45.39
6 43.79 19.58
7 8.37 43.31
8 10.88 21.16
9 4.47 10.99
10 40.88 15.74
11 3.23 42.48
