Traveling Salesman Problem/TSP_generados/Aleatorio1621103349_11.opt.tour
NAME: Aleatorio1621103349_11.opt.tour
COMMENT: Optimal solution for Aleatorio1621103349_11 (134.3660832710236)
TYPE: TOUR
DIMENSION: 11
TOUR_SECTION
1 7 5 2 6 10 3 4 9 8 11
-1
EOF
